nNurses = 77;
nHours = 32;
minHours = 4;
maxHours = 10;
maxConsec = 7;
maxPresence = 30;
demand = [5, 10, 10, 11, 14, 13, 10, 14, 11, 15, 17, 16, 11, 13, 8, 11, 13, 15, 15, 13, 15, 14, 19, 20, 23, 18, 23, 25, 24, 23, 25, 22];
